unsat
(:SPACER-inductive-gen                14
 :SPACER-inductive-gen-weaken-fail    18
 :SPACER-inductive-level              3
 :SPACER-max-depth                    5
 :SPACER-max-query-lvl                5
 :SPACER-non-local-gen                2
 :SPACER-num-active-lemmas            8
 :SPACER-num-ctp-blocked              4
 :SPACER-num-invariants               9
 :SPACER-num-is_invariant             25
 :SPACER-num-lemmas                   22
 :SPACER-num-pobs                     11
 :SPACER-num-propagations             14
 :SPACER-num-queries                  13
 :SPACER-subsume-pob                  1
 :SPACER-subsume-success              3
 :added-eqs                           796
 :arith-assert-diseq                  78
 :arith-assert-lower                  1078
 :arith-assert-upper                  1274
 :arith-bound-prop                    116
 :arith-conflicts                     22
 :arith-eq-adapter                    184
 :arith-fixed-eqs                     126
 :arith-num-rows                      40
 :arith-offset-eqs                    38
 :arith-pivots                        178
 :arith-row-summations                704
 :arith-tableau-max-columns           88
 :arith-tableau-max-rows              40
 :conflicts                           236
 :decisions                           918
 :del-clause                          272
 :final-checks                        56
 :iuc_solver.num_proxies              44
 :max-memory                          31.31
 :memory                              30.87
 :minimized-lits                      8
 :mk-bool-var                         1088
 :mk-clause                           802
 :num-allocs                          10172798
 :num-checks                          200
 :pool_solver.checks                  100
 :pool_solver.checks.sat              28
 :propagations                        6990
 :rlimit-count                        46799
 :time                                0.07
 :time.iuc_solver.get_iuc             0.01
 :time.iuc_solver.get_iuc.hyp_reduce1 0.00
 :time.iuc_solver.get_iuc.hyp_reduce2 0.00
 :time.iuc_solver.get_iuc.learn_core  0.00
 :time.pool_solver.proof              0.00
 :time.pool_solver.smt.total          0.02
 :time.pool_solver.smt.total.sat      0.01
 :time.spacer.init_rules              0.00
 :time.spacer.mbp                     0.00
 :time.spacer.solve                   0.05
 :time.spacer.solve.propagate         0.01
 :time.spacer.solve.reach             0.05
 :time.spacer.solve.reach.children    0.00
 :time.spacer.solve.reach.cluster     0.01
 :time.spacer.solve.reach.gen.global  0.00
 :time.spacer.solve.reach.gen.ind     0.00)
(:max-memory   31.31
 :memory       30.87
 :num-allocs   10172798
 :rlimit-count 46799
 :time         0.07
 :total-time   0.09)
